*MODEL INPUT FILE            Y    73     1     3   999     0
*FILES              
MODEL          CSCER048
FILEX          CAPE2002.FCX C:\DSSAT48\YieldForecast\                                                       
FILEA          CAPE2002.FCA C:\DSSAT48\YieldForecast\                                                       
FILET          CAPE2002.FCT C:\DSSAT48\YieldForecast\                                                       
SPECIES        WHCER048.SPE C:\DSSAT48\GENOTYPE\                                                            
ECOTYPE        WHCER048.ECO C:\DSSAT48\GENOTYPE\                                                            
CULTIVAR       WHCER048.CUL C:\DSSAT48\GENOTYPE\                                                            
PESTS          WHCER048.PST C:\DSSAT48\PEST\                                                                
SOILS          KZ.SOL       C:\DSSAT48\SOIL\                                                                
WEATHERW       CAPE8437.WTH C:\DSSAT48\Weather\                                                             
OUTPUT         CAPE2002
*SIMULATION CONTROL 
                  36     1     S 2020001  2150 August 1 Forecast        
                   Y     Y     N     N     N     N     N     N     M
                   M     M     E     R     S     C     R     1     P     R     2     D     0
                   A     A     R     R     M
                   Y     N     Y     1     N     N     N     N     N     N     0     N     N
!AUTOMATIC MANAGEM  
               2020135 2020154   40.  100.   30.   40.   10.
                 30.   50.  100. GS000 IR001  10.0 1.000
                 30.   50.   25. FE001 GS000
                100.     1   20.
                 20001     -99  100.    0.
*EXP.DETAILS        
  1CAPE2002 FC 2020 YIELD FORECAST - USING FORECAST RUNMODE                
*TREATMENTS         
  3 1 1 0 WH forecast Aug 1, 2020  
*CULTIVARS          
   WH KZ0001 North KAZAK1    
*FIELDS             
   CAPE0001 CAPE8437   0.0  -99.   -99  -99. 100.0   -99 Loam   -99. KZ01826030-99.00 -99.0
    -99.0000000000  -99.0000000000   -99.000               1.0  100.   1.0 -99.0 FH201    50
*INITIAL CONDITIONS 
   WH    2020001   500     0  0.00  0.00 -99.0  2000  0.60  0.00  100.    0.
      5. 0.186 0.300  3.00
     15. 0.197 0.300  3.00
     30. 0.211 0.300  3.00
     45. 0.225 0.300  3.00
     60. 0.225 0.300  3.00
     80. 0.224 0.300  3.00
    100. 0.224 0.300  3.00
    150. 0.213 0.300  3.00
    200. 0.213 0.300  3.00
*PLANTING DETAILS   
   2020135     -99 200.0 200.0     S     R   16.    0.   4.0  -99.  -99. -99.0 -99.0 -99.0
*IRRIGATION         
   1.000    0.    0.    0. GS000 IR001   0.0
*FERTILIZERS        
*RESIDUES           
*CHEMICALS          
*TILLAGE            
*ENVIRONMENT        
*HARVEST            
*SOIL               
 KZ01826030    KAZ       Loam   -99.    ISRIC soilgrids + HC27                         
 -99              KZ      54.792  69.208    HC_GEN0011                                     
 BK     0.10   6.0  0.50   75.  1.00  1.00 SA001 SA001 SA001 -99  
    5.       0.103 0.229 0.390 1.000  1.18  1.28 1.400  16.8  39.5 -99.0 0.120  7.50-99.00 26.60-99.00
   15.       0.113 0.240 0.392 0.850  1.00  1.30 0.870  18.6  38.7 -99.0 0.090  7.57-99.00 23.30-99.00
   30.       0.127 0.254 0.396 0.700 0.790  1.33 0.690  20.9  37.6 -99.0 0.070  7.66-99.00 22.50-99.00
   45.       0.141 0.268 0.400 0.500 0.630  1.38 0.630  23.3  36.2 -99.0 0.060  7.78-99.00 23.50-99.00
   60.       0.141 0.268 0.400 0.500 0.630  1.38 0.630  23.3  36.2 -99.0 0.060  7.78-99.00 23.50-99.00
   80.       0.140 0.266 0.399 0.380 0.650  1.44 0.610  23.2  35.7 -99.0 0.050  7.91-99.00 23.80-99.00
  100.       0.140 0.266 0.399 0.380 0.650  1.44 0.610  23.2  35.7 -99.0 0.050  7.91-99.00 23.80-99.00
  150.       0.130 0.253 0.395 0.050 0.780  1.50 0.600  21.5  35.4 -99.0 0.050  8.10-99.00 23.70-99.00
  200.       0.130 0.253 0.395 0.050 0.780  1.50 0.600  21.5  35.4 -99.0 0.050  8.10-99.00 23.70-99.00
                    
    5.-99.00 -99.0 -99.0 -99.0 -99.0 -99.0 -99.0 -99.0 -99.0 -99.0-99.00 -99.0 -99.0 -99.0 -99.0 -99.0  -99.  -99.
   15.-99.00 -99.0 -99.0 -99.0 -99.0 -99.0 -99.0 -99.0 -99.0 -99.0-99.00 -99.0 -99.0 -99.0 -99.0 -99.0  -99.  -99.
   30.-99.00 -99.0 -99.0 -99.0 -99.0 -99.0 -99.0 -99.0 -99.0 -99.0-99.00 -99.0 -99.0 -99.0 -99.0 -99.0  -99.  -99.
   45.-99.00 -99.0 -99.0 -99.0 -99.0 -99.0 -99.0 -99.0 -99.0 -99.0-99.00 -99.0 -99.0 -99.0 -99.0 -99.0  -99.  -99.
   60.-99.00 -99.0 -99.0 -99.0 -99.0 -99.0 -99.0 -99.0 -99.0 -99.0-99.00 -99.0 -99.0 -99.0 -99.0 -99.0  -99.  -99.
   80.-99.00 -99.0 -99.0 -99.0 -99.0 -99.0 -99.0 -99.0 -99.0 -99.0-99.00 -99.0 -99.0 -99.0 -99.0 -99.0  -99.  -99.
  100.-99.00 -99.0 -99.0 -99.0 -99.0 -99.0 -99.0 -99.0 -99.0 -99.0-99.00 -99.0 -99.0 -99.0 -99.0 -99.0  -99.  -99.
  150.-99.00 -99.0 -99.0 -99.0 -99.0 -99.0 -99.0 -99.0 -99.0 -99.0-99.00 -99.0 -99.0 -99.0 -99.0 -99.0  -99.  -99.
  200.-99.00 -99.0 -99.0 -99.0 -99.0 -99.0 -99.0 -99.0 -99.0 -99.0-99.00 -99.0 -99.0 -99.0 -99.0 -99.0  -99.  -99.
                    
    5.-99.00-99.00-99.00-99.00
   15.-99.00-99.00-99.00-99.00
   30.-99.00-99.00-99.00-99.00
   45.-99.00-99.00-99.00-99.00
   60.-99.00-99.00-99.00-99.00
   80.-99.00-99.00-99.00-99.00
  100.-99.00-99.00-99.00-99.00
  150.-99.00-99.00-99.00-99.00
  200.-99.00-99.00-99.00-99.00
*CULTIVAR           
